c This Formular was created for testing purposes
c
c    horn? no
c    forced? no
c    mixed sat? no
c    clause length = 3
c
p cnf
3	4	5
-8	11	12
14	15	16
17	18	19
1	20	9
2	12	-14
-10	6	-5
10	7	17
8	11	13
12	13	14
26	22	15
21	-36	-37
10	4	32
-28	25	23
29	-30	15
-38	12	27
-35	-40	12
19	24	9
-31	33	6
-39	34	36
%
0
